44 46
1 24
1 24
1 24
1 24
1 24
1 24
1 24
1 24
1 24
1 24
1 24
1 24
1 24
1 24
1 24
1 24
1 24
1 24
1 24
1 24
1 24
1 24
47 24
47 24
47 24
47 24
47 24
47 24
47 24
47 24
47 24
47 24
47 24
47 24
47 24
47 24
47 24
47 24
47 24
47 24
47 24
47 24
47 24
47 24
